%SETS
JOBS = 1..10;
MACHINES = 1..25;
SPEED    = 5;

time = array3d(JOBS,MACHINES,1..SPEED,[6, 2, 1, 1, 1, 12, 4, 3, 2, 2, 58, 20, 14, 11, 10, 10, 3, 2, 2, 1, 108, 37, 26, 22, 19, 1, 1, 1, 1, 1, 11, 3, 2, 2, 2, 12, 4, 3, 2, 2, 37, 12, 9, 7, 6, 72, 24, 17, 14, 13, 9, 3, 2, 2, 1, 14, 5, 3, 2, 2, 8, 2, 1, 1, 1, 41, 14, 10, 8, 7, 26, 9, 6, 5, 4, 1, 1, 1, 1, 1, 23, 8, 5, 4, 4, 41, 14, 10, 8, 7, 1, 1, 1, 1, 1, 15, 5, 3, 3, 2, 40, 13, 9, 8, 7, 115, 39, 28, 23, 20, 22, 7, 5, 4, 4, 1, 1, 1, 1, 1, 15, 5, 3, 3, 2, 5, 1, 1, 1, 1, 25, 8, 6, 5, 4, 6, 2, 1, 1, 1, 4, 1, 1, 1, 1, 19, 6, 4, 4, 3, 2, 1, 1, 1, 1, 33, 11, 8, 6, 6, 72, 25, 17, 14, 13, 74, 25, 18, 15, 13, 12, 4, 2, 2, 2, 23, 8, 5, 4, 4, 28, 9, 6, 5, 5, 18, 6, 4, 3, 3, 16, 5, 4, 3, 2, 1, 1, 1, 1, 1, 1, 1, 1, 1, 1, 14, 5, 3, 3, 2, 14, 5, 3, 2, 2, 5, 1, 1, 1, 1, 19, 6, 4, 3, 3, 23, 8, 5, 4, 4, 33, 11, 8, 6, 5, 9, 3, 2, 1, 1, 13, 4, 3, 2, 2, 44, 15, 10, 9, 8, 22, 7, 5, 4, 4, 31, 10, 7, 6, 5, 18, 6, 4, 3, 3, 45, 15, 11, 9, 8, 33, 11, 8, 6, 5, 52, 17, 12, 10, 9, 5, 2, 1, 1, 1, 9, 3, 2, 1, 1, 16, 5, 4, 3, 3, 17, 6, 4, 3, 3, 24, 8, 5, 4, 4, 44, 15, 10, 8, 7, 19, 6, 4, 3, 3, 72, 25, 17, 14, 13, 33, 11, 8, 6, 5, 5, 1, 1, 1, 1, 25, 8, 6, 5, 4, 21, 7, 5, 4, 3, 37, 12, 9, 7, 6, 42, 14, 10, 8, 7, 9, 3, 2, 1, 1, 3, 1, 1, 1, 1, 26, 9, 6, 5, 4, 1, 1, 1, 1, 1, 40, 13, 9, 8, 7, 18, 6, 4, 3, 3, 151, 52, 37, 30, 27, 107, 36, 26, 21, 19, 6, 2, 1, 1, 1, 49, 16, 12, 9, 8, 43, 14, 10, 8, 7, 6, 2, 1, 1, 1, 27, 9, 6, 5, 4, 97, 33, 23, 19, 17, 34, 11, 8, 6, 6, 2, 1, 1, 1, 1, 17, 6, 4, 3, 3, 16, 5, 3, 3, 2, 1, 1, 1, 1, 1, 116, 40, 28, 23, 20, 54, 18, 13, 11, 9, 6, 2, 1, 1, 1, 24, 8, 5, 4, 4, 16, 5, 4, 3, 2, 11, 3, 2, 2, 2, 19, 6, 4, 3, 3, 21, 7, 5, 4, 3, 46, 16, 11, 9, 8, 1, 1, 1, 1, 1, 24, 8, 5, 4, 4, 18, 6, 4, 3, 3, 4, 1, 1, 1, 1, 4, 1, 1, 1, 1, 26, 9, 6, 5, 4, 55, 19, 13, 11, 9, 1, 1, 1, 1, 1, 14, 4, 3, 2, 2, 54, 18, 13, 11, 9, 16, 5, 4, 3, 3, 11, 4, 2, 2, 2, 7, 2, 1, 1, 1, 1, 1, 1, 1, 1, 4, 1, 1, 1, 1, 21, 7, 5, 4, 3, 19, 6, 4, 3, 3, 20, 7, 4, 4, 3, 9, 3, 2, 1, 1, 51, 17, 12, 10, 9, 48, 16, 11, 9, 8, 16, 5, 3, 3, 2, 36, 12, 8, 7, 6, 39, 13, 9, 8, 7, 11, 4, 2, 2, 2, 5, 1, 1, 1, 1, 7, 2, 1, 1, 1, 7, 2, 1, 1, 1, 12, 4, 3, 2, 2, 1, 1, 1, 1, 1, 8, 2, 2, 1, 1, 19, 6, 4, 4, 3, 14, 4, 3, 2, 2, 19, 6, 4, 3, 3, 34, 12, 8, 7, 6, 69, 23, 16, 14, 12, 10, 3, 2, 2, 1, 8, 2, 2, 1, 1, 16, 5, 4, 3, 3, 24, 8, 5, 4, 4, 5, 1, 1, 1, 1, 1, 1, 1, 1, 1, 5, 2, 1, 1, 1, 7, 2, 1, 1, 1, 14, 5, 3, 3, 2, 25, 8, 6, 5, 4, 9, 3, 2, 1, 1, 95, 33, 23, 19, 17, 53, 18, 12, 10, 9, 25, 8, 6, 5, 4, 10, 3, 2, 2, 1, 4, 1, 1, 1, 1, 27, 9, 6, 5, 5, 32, 11, 7, 6, 5, 1, 1, 1, 1, 1, 38, 13, 9, 7, 6, 56, 19, 13, 11, 10, 25, 8, 6, 5, 4, 31, 10, 7, 6, 5, 51, 17, 12, 10, 9, 76, 26, 18, 15, 13, 11, 3, 2, 2, 2, 1, 1, 1, 1, 1, 9, 3, 2, 1, 1, 4, 1, 1, 1, 1, 12, 4, 2, 2, 2, 18, 6, 4, 3, 3, 40, 13, 9, 8, 7, 78, 27, 19, 16, 14, 8, 3, 2, 1, 1, 78, 27, 19, 15, 14, 5, 1, 1, 1, 1, 15, 5, 3, 3, 2, 5, 1, 1, 1, 1, 7, 2, 1, 1, 1, 1, 1, 1, 1, 1, 7, 2, 1, 1, 1, 12, 4, 3, 2, 2, 17, 6, 4, 3, 3, 9, 3, 2, 1, 1, 1, 1, 1, 1, 1, 54, 18, 13, 11, 9, 6, 2, 1, 1, 1, 6, 2, 1, 1, 1, 1, 1, 1, 1, 1, 7, 2, 1, 1, 1, 8, 2, 2, 1, 1, 22, 7, 5, 4, 3, 19, 6, 4, 3, 3, 41, 14, 10, 8, 7, 38, 13, 9, 7, 7, 68, 23, 16, 14, 12, 19, 6, 4, 3, 3, 70, 24, 17, 14, 12, 43, 15, 10, 8, 7, 5, 1, 1, 1, 1, 30, 10, 7, 6, 5, 63, 22, 15, 12, 11, 60, 20, 14, 12, 10, 51, 17, 12, 10, 9, 26, 9, 6, 5, 4, 83, 28, 20, 16, 14, 7, 2, 1, 1, 1, 30, 10, 7, 6, 5, 3, 1, 1, 1, 1, 28, 9, 6, 5, 5, 32, 11, 7, 6, 5, 28, 9, 7, 5, 5, 17, 6, 4, 3, 3, 13, 4, 3, 2, 2, 52, 18, 12, 10, 9, 16, 5, 4, 3, 2, 9, 3, 2, 2, 1, 1, 1, 1, 1, 1, 27, 9, 6, 5, 5, 36, 12, 8, 7, 6, 18, 6, 4, 3, 3, 33, 11, 8, 6, 6, 26, 9, 6, 5, 4, 18, 6, 4, 3, 3, 5, 1, 1, 1, 1, 11, 3, 2, 2, 2, 33, 11, 8, 6, 6, 35, 12, 8, 7, 6, 1, 1, 1, 1, 1, 14, 4, 3, 2, 2, 24, 8, 5, 4, 4, 34, 11, 8, 6, 6, 13, 4, 3, 2, 2, 20, 7, 4, 4, 3, 12, 4, 3, 2, 2, 10, 3, 2, 2, 1, 10, 3, 2, 2, 1, 44, 15, 10, 9, 8, 2, 1, 1, 1, 1, 1, 1, 1, 1, 1, 29, 10, 7, 6, 5, 11, 4, 2, 2, 2, 72, 25, 17, 14, 13, 4, 1, 1, 1, 1, 13, 4, 3, 2, 2, 13, 4, 3, 2, 2, 18, 6, 4, 3, 3, 4, 1, 1, 1, 1, 104, 36, 25, 21, 18, 25, 8, 6, 5, 4, 68, 23, 16, 13, 12, 26, 9, 6, 5, 4, 26, 9, 6, 5, 4, 23, 8, 5, 4, 4, 7, 2, 1, 1, 1, 8, 3, 2, 1, 1]);
energy = array3d(JOBS,MACHINES,1..SPEED,[94, 98, 99, 99, 99, 88, 96, 97, 98, 98, 55, 81, 86, 89, 90, 90, 97, 98, 98, 99, 33, 69, 77, 80, 82, 99, 99, 99, 99, 99, 89, 97, 98, 98, 98, 88, 96, 97, 98, 98, 69, 88, 91, 93, 94, 48, 78, 84, 86, 87, 91, 97, 98, 98, 99, 86, 95, 97, 98, 98, 92, 98, 99, 99, 99, 66, 86, 90, 92, 93, 77, 91, 94, 95, 96, 99, 99, 99, 99, 99, 79, 92, 95, 96, 96, 66, 86, 90, 92, 93, 99, 99, 99, 99, 99, 86, 95, 97, 97, 98, 67, 87, 91, 92, 93, 31, 67, 75, 79, 81, 80, 93, 95, 96, 96, 99, 99, 99, 99, 99, 86, 95, 97, 97, 98, 95, 99, 99, 99, 99, 77, 92, 94, 95, 96, 94, 98, 99, 99, 99, 96, 99, 99, 99, 99, 82, 94, 96, 96, 97, 98, 99, 99, 99, 99, 71, 89, 92, 94, 94, 48, 77, 84, 86, 87, 47, 77, 83, 86, 87, 88, 96, 98, 98, 98, 79, 92, 95, 96, 96, 75, 91, 94, 95, 95, 83, 94, 96, 97, 97, 85, 95, 96, 97, 98, 99, 99, 99, 99, 99, 99, 99, 99, 99, 99, 86, 95, 97, 97, 98, 86, 95, 97, 98, 98, 95, 99, 99, 99, 99, 82, 94, 96, 97, 97, 79, 92, 95, 96, 96, 71, 89, 92, 94, 95, 91, 97, 98, 99, 99, 87, 96, 97, 98, 98, 64, 86, 90, 91, 92, 80, 93, 95, 96, 96, 73, 90, 93, 94, 95, 83, 94, 96, 97, 97, 63, 86, 89, 91, 92, 71, 89, 92, 94, 95, 59, 84, 88, 90, 91, 95, 98, 99, 99, 99, 91, 97, 98, 99, 99, 85, 95, 96, 97, 97, 84, 94, 96, 97, 97, 78, 92, 95, 96, 96, 64, 86, 90, 92, 93, 82, 94, 96, 97, 97, 48, 77, 84, 86, 87, 71, 89, 92, 94, 95, 95, 99, 99, 99, 99, 77, 92, 94, 95, 96, 81, 93, 95, 96, 97, 69, 88, 91, 93, 94, 65, 86, 90, 92, 93, 91, 97, 98, 99, 99, 97, 99, 99, 99, 99, 77, 91, 94, 95, 96, 99, 99, 99, 99, 99, 67, 87, 91, 92, 93, 83, 94, 96, 97, 97, 22, 59, 69, 74, 76, 34, 69, 77, 81, 82, 94, 98, 99, 99, 99, 61, 85, 88, 91, 92, 65, 86, 90, 92, 93, 94, 98, 99, 99, 99, 76, 91, 94, 95, 96, 37, 71, 79, 82, 84, 71, 89, 92, 94, 94, 98, 99, 99, 99, 99, 84, 94, 96, 97, 97, 85, 95, 97, 97, 98, 99, 99, 99, 99, 99, 31, 67, 75, 79, 81, 58, 83, 87, 89, 91, 94, 98, 99, 99, 99, 78, 92, 95, 96, 96, 85, 95, 96, 97, 98, 89, 97, 98, 98, 98, 82, 94, 96, 97, 97, 81, 93, 95, 96, 97, 63, 85, 89, 91, 92, 99, 99, 99, 99, 99, 78, 92, 95, 96, 96, 83, 94, 96, 97, 97, 96, 99, 99, 99, 99, 96, 99, 99, 99, 99, 77, 91, 94, 95, 96, 57, 82, 87, 89, 91, 99, 99, 99, 99, 99, 86, 96, 97, 98, 98, 58, 83, 87, 89, 91, 85, 95, 96, 97, 97, 89, 96, 98, 98, 98, 93, 98, 99, 99, 99, 99, 99, 99, 99, 99, 96, 99, 99, 99, 99, 81, 93, 95, 96, 97, 82, 94, 96, 97, 97, 81, 93, 96, 96, 97, 91, 97, 98, 99, 99, 60, 84, 88, 90, 91, 61, 85, 89, 91, 92, 85, 95, 97, 97, 98, 69, 88, 92, 93, 94, 67, 87, 91, 92, 93, 89, 96, 98, 98, 98, 95, 99, 99, 99, 99, 93, 98, 99, 99, 99, 93, 98, 99, 99, 99, 88, 96, 97, 98, 98, 99, 99, 99, 99, 99, 92, 98, 98, 99, 99, 82, 94, 96, 96, 97, 86, 96, 97, 98, 98, 82, 94, 96, 97, 97, 71, 88, 92, 93, 94, 50, 79, 85, 86, 88, 90, 97, 98, 98, 99, 92, 98, 98, 99, 99, 85, 95, 96, 97, 97, 78, 92, 95, 96, 96, 95, 99, 99, 99, 99, 99, 99, 99, 99, 99, 95, 98, 99, 99, 99, 93, 98, 99, 99, 99, 86, 95, 97, 97, 98, 77, 92, 94, 95, 96, 91, 97, 98, 99, 99, 38, 71, 79, 82, 84, 58, 83, 88, 90, 91, 77, 92, 94, 95, 96, 90, 97, 98, 98, 99, 96, 99, 99, 99, 99, 76, 91, 94, 95, 95, 72, 89, 93, 94, 95, 99, 99, 99, 99, 99, 68, 87, 91, 93, 94, 57, 82, 87, 89, 90, 77, 92, 94, 95, 96, 73, 90, 93, 94, 95, 60, 84, 88, 90, 91, 46, 77, 83, 86, 87, 89, 97, 98, 98, 98, 99, 99, 99, 99, 99, 91, 97, 98, 99, 99, 96, 99, 99, 99, 99, 88, 96, 98, 98, 98, 83, 94, 96, 97, 97, 67, 87, 91, 92, 93, 45, 76, 82, 85, 86, 92, 97, 98, 99, 99, 45, 76, 82, 86, 86, 95, 99, 99, 99, 99, 86, 95, 97, 97, 98, 95, 99, 99, 99, 99, 93, 98, 99, 99, 99, 99, 99, 99, 99, 99, 93, 98, 99, 99, 99, 88, 96, 97, 98, 98, 84, 94, 96, 97, 97, 91, 97, 98, 99, 99, 99, 99, 99, 99, 99, 58, 83, 87, 89, 91, 94, 98, 99, 99, 99, 94, 98, 99, 99, 99, 99, 99, 99, 99, 99, 93, 98, 99, 99, 99, 92, 98, 98, 99, 99, 80, 93, 95, 96, 97, 82, 94, 96, 97, 97, 66, 86, 90, 92, 93, 68, 87, 91, 93, 93, 50, 79, 85, 86, 88, 82, 94, 96, 97, 97, 49, 78, 84, 86, 88, 65, 86, 90, 92, 93, 95, 99, 99, 99, 99, 74, 90, 93, 94, 95, 53, 80, 86, 88, 89, 54, 81, 86, 88, 90, 60, 84, 88, 90, 91, 77, 91, 94, 95, 96, 43, 75, 81, 85, 86, 93, 98, 99, 99, 99, 74, 90, 93, 94, 95, 97, 99, 99, 99, 99, 75, 91, 94, 95, 95, 72, 89, 93, 94, 95, 75, 91, 93, 95, 95, 84, 94, 96, 97, 97, 87, 96, 97, 98, 98, 59, 83, 88, 90, 91, 85, 95, 96, 97, 98, 91, 97, 98, 98, 99, 99, 99, 99, 99, 99, 76, 91, 94, 95, 95, 69, 88, 92, 93, 94, 83, 94, 96, 97, 97, 71, 89, 92, 94, 94, 77, 91, 94, 95, 96, 83, 94, 96, 97, 97, 95, 99, 99, 99, 99, 89, 97, 98, 98, 98, 71, 89, 92, 94, 94, 70, 88, 92, 93, 94, 99, 99, 99, 99, 99, 86, 96, 97, 98, 98, 78, 92, 95, 96, 96, 71, 89, 92, 94, 94, 87, 96, 97, 98, 98, 81, 93, 96, 96, 97, 88, 96, 97, 98, 98, 90, 97, 98, 98, 99, 90, 97, 98, 98, 99, 64, 86, 90, 91, 92, 98, 99, 99, 99, 99, 99, 99, 99, 99, 99, 74, 90, 93, 94, 95, 89, 96, 98, 98, 98, 48, 77, 84, 86, 87, 96, 99, 99, 99, 99, 87, 96, 97, 98, 98, 87, 96, 97, 98, 98, 83, 94, 96, 97, 97, 96, 99, 99, 99, 99, 35, 69, 77, 81, 83, 77, 92, 94, 95, 96, 50, 79, 85, 87, 88, 77, 91, 94, 95, 96, 77, 91, 94, 95, 96, 79, 92, 95, 96, 96, 93, 98, 99, 99, 99, 92, 97, 98, 99, 99]);
precedence = array2d(JOBS,MACHINES,[11, 23, 14, 16, 15, 17, 9, 4, 18, 6, 19, 21, 3, 12, 8, 13, 24, 22, 10, 2, 7, 1, 20, 0, 5, 2, 21, 16, 18, 23, 6, 15, 12, 3, 0, 20, 17, 4, 24, 22, 7, 1, 11, 19, 13, 10, 14, 9, 8, 5, 24, 22, 16, 11, 3, 10, 17, 4, 19, 13, 12, 0, 5, 18, 9, 6, 7, 21, 20, 15, 1, 14, 8, 2, 23, 13, 7, 19, 8, 12, 17, 15, 16, 6, 23, 22, 14, 11, 9, 5, 0, 4, 20, 10, 24, 21, 2, 18, 1, 3, 14, 13, 21, 3, 2, 23, 20, 0, 11, 4, 9, 10, 8, 15, 1, 5, 7, 16, 19, 24, 22, 6, 12, 18, 17, 17, 5, 0, 10, 12, 16, 8, 22, 7, 6, 21, 15, 1, 23, 13, 4, 20, 24, 9, 18, 2, 3, 19, 14, 11, 15, 20, 16, 3, 11, 7, 2, 17, 8, 21, 22, 23, 18, 9, 10, 0, 12, 1, 24, 19, 6, 14, 4, 13, 5, 3, 4, 21, 14, 1, 16, 12, 20, 23, 5, 8, 18, 15, 17, 9, 7, 24, 0, 2, 22, 11, 10, 6, 13, 19, 13, 22, 9, 8, 15, 21, 10, 4, 18, 24, 20, 2, 14, 3, 0, 16, 23, 5, 6, 7, 19, 11, 17, 1, 12, 14, 0, 3, 5, 24, 10, 11, 8, 9, 1, 20, 23, 4, 7, 12, 17, 13, 16, 22, 19, 2, 6, 18, 21, 15]);